c This Formular is generated by mcnf
c
c    horn? no
c    forced? no
c    mixed sat? no
c    clause length = 3
c
p cnf 7 6
1 0
-1 2 0
-3 4 0
-5 -6 0
-1 -5 7 0
-2 -5 6 -7 0

c1 -2 -3 0
c1 -2 -4 0
c1 -2 -5 0
c1 -2 -6 0
c-1 2 0
c-1 -2 0
c1 -2 3 0


